6286        5851
6241        6099
6329        6099
6306        6072
6377        6009
6437        6144
6346        5991
6481        6084
6358        5979
6465        6298 7 96 33  8 40  4 55 43 73 90 68 79 50 62 47 22 54 94 23 14 60 13 22 57 23 97 11 53  3 18 66 75 51 81 90 17  6 79 71 97 76
